
(set-logic ALL) 

(declare-datatype MyList ((Nil) (Cons (head Real) (tail MyList)) )) 
(declare-fun l0 () MyList) 
(declare-fun l1 () MyList) 
(declare-fun l2 () MyList) 
(declare-fun l3 () MyList) 
(declare-fun i0 () Real) 
(declare-fun i1 () Real) 
(assert (or (= l2 Nil) (= l3 Nil) (is-Cons Nil)) )
(assert (or (= l1 l0) (= l3 Nil) (is-Cons Nil)) )
(assert (and (= l3 Nil) (= l0 Nil) (= l1 l3)) )
(assert (or (is-Cons Nil) (= l3 Nil) (is-Cons l1) (is-Cons l3)) )
(assert (or (= l3 Nil) (= l3 Nil) (= l1 l1)) )
(assert (and (= l1 l2) (= l0 Nil) (is-Nil Nil)) )
(assert (or (= l2 Nil) (= l0 Nil) (= l1 Nil)) )
(assert (is-Cons Nil) )
(check-sat)
